NAME : lrc104.1128402.tour
COMMENT : Cost = 0_1128402
COMMENT : Found by LKH [Keld Helsgaun] Fri Sep 15 17:42:02 2017
TYPE : TOUR
DIMENSION : 118
TOUR_SECTION
1
62
71
2
4
6
46
102
9
47
5
101
69
117
67
107
21
50
20
24
22
19
49
26
25
23
113
93
51
34
33
108
31
29
27
28
30
32
35
110
15
48
16
12
10
88
60
75
103
87
58
53
116
86
64
90
77
85
52
65
84
112
81
92
57
96
63
68
95
106
94
72
97
82
111
70
99
54
13
18
17
14
109
11
83
118
89
61
79
74
80
8
7
3
56
105
115
43
44
45
39
38
36
37
41
40
42
73
55
114
91
66
100
98
76
59
104
78
-1
EOF
